\ Equation counts
\     Total        E        G        L        N        X        C        B
\	389	389	0	0
\
\ Variable counts
\                  x        b        i      s1s      s2s       sc       si
\     Total     cont   binary  integer     sos1     sos2    scont     sint
\	50	50

\ Nonzero counts
\     Total    const       NL      DLL
\
\
Minimize
 obj: [ - 23.0 x_1 * x_2 - 11.5 x_1 * x_6 - 17.0 x_1 * x_7 - 22.5 x_1 * x_8 - 23.5 x_1 * x_11 + 23.5 x_1 * x_12 + 4.0 x_1 * x_18 - 14.5 x_1 * x_19 + 2.5 x_1 * x_27 + 3.0 x_1 * x_29 - 21.0 x_1 * x_37 - 4.5 x_1 * x_38 + 10.0 x_1 * x_39 - 11.0 x_1 * x_40 - 23.0 x_2 * x_1 + 16.0 x_2 * x_2 - 19.5 x_2 * x_4 - 8.0 x_2 * x_5 - 15.0 x_2 * x_10 + 2.0 x_2 * x_13 - 17.0 x_2 * x_14 - 14.5 x_2 * x_20 - 11.0 x_2 * x_21 + 12.0 x_2 * x_31 - 20.0 x_2 * x_37 - 8.0 x_2 * x_38 - 20.0 x_2 * x_43 + 8.0 x_2 * x_47 + 16.5 x_2 * x_49 + 20.0 x_3 * x_7 + 0.5 x_3 * x_10 + 4.5 x_3 * x_12 - 5.0 x_3 * x_13 - 2.0 x_3 * x_14 + 3.0 x_3 * x_23 + 6.0 x_3 * x_31 - 18.0 x_3 * x_36 + 17.0 x_3 * x_39 - 24.0 x_3 * x_40 + 21.5 x_3 * x_42 - 17.5 x_3 * x_45 - 20.5 x_3 * x_46 - 19.5 x_4 * x_2 - 21.0 x_4 * x_11 - 5.5 x_4 * x_13 + 11.0 x_4 * x_17 + 18.5 x_4 * x_18 + 18.0 x_4 * x_24 + 21.5 x_4 * x_27 - 15.0 x_4 * x_28 + 1.0 x_4 * x_30 - 6.5 x_4 * x_31 + 2.0 x_4 * x_32 + 8.0 x_4 * x_34 - 19.5 x_4 * x_39 - 5.5 x_4 * x_44 - 16.5 x_4 * x_45 + 14.5 x_4 * x_49 + 24.0 x_4 * x_50 - 8.0 x_5 * x_2 - 7.5 x_5 * x_5 - 9.5 x_5 * x_7 + 14.0 x_5 * x_8 - 21.5 x_5 * x_12 + 21.0 x_5 * x_14 + 7.0 x_5 * x_15 + 13.5 x_5 * x_16 - 24.0 x_5 * x_17 - 14.5 x_5 * x_21 + 2.0 x_5 * x_22 - 1.5 x_5 * x_24 - 17.0 x_5 * x_25 + 18.0 x_5 * x_29 + 10.0 x_5 * x_30 + 10.5 x_5 * x_31 + 17.5 x_5 * x_33 - 15.0 x_5 * x_35 + 3.5 x_5 * x_36 + 14.5 x_5 * x_37 + 12.0 x_5 * x_38 + 1.5 x_5 * x_40 + 22.0 x_5 * x_42 + 19.0 x_5 * x_49 - 11.5 x_6 * x_1 - 18.5 x_6 * x_14 - 16.0 x_6 * x_18 + 4.5 x_6 * x_19 - 8.5 x_6 * x_20 + 15.5 x_6 * x_23 + 17.5 x_6 * x_24 + 11.0 x_6 * x_27 - 3.0 x_6 * x_31 - 9.0 x_6 * x_32 - 23.0 x_6 * x_46 - 17.0 x_7 * x_1 + 20.0 x_7 * x_3 - 9.5 x_7 * x_5 + 24.5 x_7 * x_11 + 1.0 x_7 * x_12 - 1.0 x_7 * x_13 - 14.0 x_7 * x_15 + 2.0 x_7 * x_16 - 10.5 x_7 * x_17 + 1.0 x_7 * x_24 - 2.5 x_7 * x_29 - 9.0 x_7 * x_32 + 9.5 x_7 * x_33 - 2.5 x_7 * x_37 + 22.5 x_7 * x_38 - 24.5 x_7 * x_39 + 20.5 x_7 * x_40 - 8.5 x_7 * x_41 + 1.5 x_7 * x_47 - 22.5 x_8 * x_1 + 14.0 x_8 * x_5 + 15.0 x_8 * x_9 + 4.0 x_8 * x_14 + 1.5 x_8 * x_17 - 19.5 x_8 * x_21 - 22.5 x_8 * x_22 + 4.0 x_8 * x_24 - 10.0 x_8 * x_28 - 21.5 x_8 * x_29 - 9.0 x_8 * x_30 - 1.0 x_8 * x_47 + 11.5 x_8 * x_48 + 15.0 x_9 * x_8 - 3.5 x_9 * x_17 - 7.0 x_9 * x_20 + 4.0 x_9 * x_24 - 21.5 x_9 * x_26 + 11.0 x_9 * x_28 - 11.5 x_9 * x_30 - 18.0 x_9 * x_38 - 13.5 x_9 * x_40 - 5.5 x_9 * x_43 - 10.5 x_9 * x_48 + 17.5 x_9 * x_50 - 15.0 x_10 * x_2 + 0.5 x_10 * x_3 - 7.5 x_10 * x_11 - 11.0 x_10 * x_12 + 2.5 x_10 * x_14 - 2.0 x_10 * x_18 + 12.5 x_10 * x_19 + 8.0 x_10 * x_24 - 16.5 x_10 * x_30 - 10.5 x_10 * x_32 - 9.5 x_10 * x_36 - 13.0 x_10 * x_42 - 14.0 x_10 * x_47 + 9.0 x_10 * x_50 - 23.5 x_11 * x_1 - 21.0 x_11 * x_4 + 24.5 x_11 * x_7 - 7.5 x_11 * x_10 - 17.0 x_11 * x_11 - 8.5 x_11 * x_14 - 16.0 x_11 * x_20 + 16.5 x_11 * x_22 + 14.5 x_11 * x_24 + 22.0 x_11 * x_27 + 9.5 x_11 * x_29 + 17.5 x_11 * x_30 + 8.5 x_11 * x_35 - 7.0 x_11 * x_36 - 7.0 x_11 * x_45 - 1.5 x_11 * x_49 + 23.5 x_12 * x_1 + 4.5 x_12 * x_3 - 21.5 x_12 * x_5 + 1.0 x_12 * x_7 - 11.0 x_12 * x_10 - 17.0 x_12 * x_15 + 21.5 x_12 * x_16 + 21.0 x_12 * x_18 - 6.0 x_12 * x_22 + 8.0 x_12 * x_28 - 3.5 x_12 * x_34 + 13.0 x_12 * x_37 + 21.0 x_12 * x_39 + 2.0 x_13 * x_2 - 5.0 x_13 * x_3 - 5.5 x_13 * x_4 - 1.0 x_13 * x_7 + 2.5 x_13 * x_14 + 6.5 x_13 * x_17 - 9.0 x_13 * x_19 + 22.5 x_13 * x_23 - 19.0 x_13 * x_24 + 17.5 x_13 * x_27 + 10.5 x_13 * x_29 - 5.5 x_13 * x_30 - 9.5 x_13 * x_31 + 22.0 x_13 * x_37 - 24.0 x_13 * x_38 - 4.5 x_13 * x_39 - 6.5 x_13 * x_40 + 14.0 x_13 * x_41 + 4.0 x_13 * x_43 + 19.5 x_13 * x_47 + 19.0 x_13 * x_48 - 17.0 x_14 * x_2 - 2.0 x_14 * x_3 + 21.0 x_14 * x_5 - 18.5 x_14 * x_6 + 4.0 x_14 * x_8 + 2.5 x_14 * x_10 - 8.5 x_14 * x_11 + 2.5 x_14 * x_13 - 4.0 x_14 * x_18 + 19.0 x_14 * x_23 + 8.5 x_14 * x_30 + 16.5 x_14 * x_34 - 4.5 x_14 * x_35 - 5.0 x_14 * x_41 - 5.0 x_14 * x_44 + 14.5 x_14 * x_47 + 23.5 x_14 * x_48 + 9.0 x_14 * x_49 + 7.0 x_15 * x_5 - 14.0 x_15 * x_7 - 17.0 x_15 * x_12 - 2.5 x_15 * x_15 - 1.5 x_15 * x_18 + 16.0 x_15 * x_19 + 16.5 x_15 * x_20 + 24.5 x_15 * x_22 + 1.5 x_15 * x_25 - 5.5 x_15 * x_26 + 3.0 x_15 * x_34 - 20.0 x_15 * x_37 + 11.5 x_15 * x_42 + 12.0 x_15 * x_46 - 0.5 x_15 * x_50 + 13.5 x_16 * x_5 + 2.0 x_16 * x_7 + 21.5 x_16 * x_12 + 9.5 x_16 * x_26 + 17.5 x_16 * x_32 + 14.0 x_16 * x_35 + 13.0 x_16 * x_36 + 21.5 x_16 * x_38 + 13.0 x_16 * x_41 - 22.0 x_16 * x_44 + 11.0 x_17 * x_4 - 24.0 x_17 * x_5 - 10.5 x_17 * x_7 + 1.5 x_17 * x_8 - 3.5 x_17 * x_9 + 6.5 x_17 * x_13 - 12.0 x_17 * x_27 + 10.5 x_17 * x_34 + 15.5 x_17 * x_36 - 9.5 x_17 * x_40 - 20.5 x_17 * x_41 + 4.0 x_18 * x_1 + 18.5 x_18 * x_4 - 16.0 x_18 * x_6 - 2.0 x_18 * x_10 + 21.0 x_18 * x_12 - 4.0 x_18 * x_14 - 1.5 x_18 * x_15 - 23.5 x_18 * x_24 + 10.5 x_18 * x_26 + 7.5 x_18 * x_30 + 19.0 x_18 * x_31 - 24.0 x_18 * x_38 + 9.0 x_18 * x_42 - 14.5 x_19 * x_1 + 4.5 x_19 * x_6 + 12.5 x_19 * x_10 - 9.0 x_19 * x_13 + 16.0 x_19 * x_15 + 20.0 x_19 * x_19 - 7.5 x_19 * x_27 + 23.0 x_19 * x_31 + 20.0 x_19 * x_38 - 22.0 x_19 * x_41 - 15.5 x_19 * x_43 - 11.5 x_19 * x_45 - 9.5 x_19 * x_50 - 14.5 x_20 * x_2 - 8.5 x_20 * x_6 - 7.0 x_20 * x_9 - 16.0 x_20 * x_11 + 16.5 x_20 * x_15 + 13.5 x_20 * x_20 + 6.0 x_20 * x_24 + 18.5 x_20 * x_37 - 11.0 x_20 * x_43 - 1.5 x_20 * x_45 + 20.5 x_20 * x_50 - 11.0 x_21 * x_2 - 14.5 x_21 * x_5 - 19.5 x_21 * x_8 - 8.0 x_21 * x_24 - 7.0 x_21 * x_28 - 17.5 x_21 * x_31 - 20.5 x_21 * x_32 + 11.0 x_21 * x_33 - 3.0 x_21 * x_36 + 20.5 x_21 * x_44 - 8.5 x_21 * x_45 + 17.0 x_21 * x_46 + 2.0 x_22 * x_5 - 22.5 x_22 * x_8 + 16.5 x_22 * x_11 - 6.0 x_22 * x_12 + 24.5 x_22 * x_15 + 7.0 x_22 * x_23 - 22.0 x_22 * x_25 - 19.5 x_22 * x_26 + 16.5 x_22 * x_32 - 9.0 x_22 * x_33 + 2.5 x_22 * x_37 + 20.5 x_22 * x_39 + 6.0 x_22 * x_41 - 16.0 x_22 * x_46 + 3.0 x_23 * x_3 + 15.5 x_23 * x_6 + 22.5 x_23 * x_13 + 19.0 x_23 * x_14 + 7.0 x_23 * x_22 + 19.0 x_23 * x_27 + 10.0 x_23 * x_28 + 11.5 x_23 * x_29 + 22.0 x_23 * x_30 - 19.5 x_23 * x_39 + 10.5 x_23 * x_43 + 9.0 x_23 * x_44 - 0.5 x_23 * x_48 - 0.5 x_23 * x_49 - 7.0 x_23 * x_50 + 18.0 x_24 * x_4 - 1.5 x_24 * x_5 + 17.5 x_24 * x_6 + 1.0 x_24 * x_7 + 4.0 x_24 * x_8 + 4.0 x_24 * x_9 + 8.0 x_24 * x_10 + 14.5 x_24 * x_11 - 19.0 x_24 * x_13 - 23.5 x_24 * x_18 + 6.0 x_24 * x_20 - 8.0 x_24 * x_21 - 19.0 x_24 * x_28 + 5.0 x_24 * x_33 - 1.5 x_24 * x_35 - 0.5 x_24 * x_37 - 10.0 x_24 * x_38 - 14.0 x_24 * x_39 - 6.5 x_24 * x_42 + 16.0 x_24 * x_43 + 24.5 x_24 * x_45 - 17.0 x_25 * x_5 + 1.5 x_25 * x_15 - 22.0 x_25 * x_22 + 8.0 x_25 * x_29 + 21.0 x_25 * x_31 + 10.0 x_25 * x_45 - 6.5 x_25 * x_49 - 21.5 x_26 * x_9 - 5.5 x_26 * x_15 + 9.5 x_26 * x_16 + 10.5 x_26 * x_18 - 19.5 x_26 * x_22 - 18.0 x_26 * x_29 + 19.5 x_26 * x_30 + 1.0 x_26 * x_31 + 13.0 x_26 * x_36 - 19.5 x_26 * x_40 + 4.0 x_26 * x_42 + 6.0 x_26 * x_43 - 13.5 x_26 * x_49 - 18.5 x_26 * x_50 + 2.5 x_27 * x_1 + 21.5 x_27 * x_4 + 11.0 x_27 * x_6 + 22.0 x_27 * x_11 + 17.5 x_27 * x_13 - 12.0 x_27 * x_17 - 7.5 x_27 * x_19 + 19.0 x_27 * x_23 + 17.5 x_27 * x_31 - 13.0 x_27 * x_33 + 8.5 x_27 * x_38 - 0.5 x_27 * x_42 - 7.5 x_27 * x_44 + 16.5 x_27 * x_49 - 15.0 x_28 * x_4 - 10.0 x_28 * x_8 + 11.0 x_28 * x_9 + 8.0 x_28 * x_12 - 7.0 x_28 * x_21 + 10.0 x_28 * x_23 - 19.0 x_28 * x_24 - 6.5 x_28 * x_29 + 22.0 x_28 * x_30 + 2.0 x_28 * x_33 + 17.5 x_28 * x_34 - 24.5 x_28 * x_37 - 4.0 x_28 * x_39 - 11.0 x_28 * x_41 - 4.0 x_28 * x_47 + 3.0 x_29 * x_1 + 18.0 x_29 * x_5 - 2.5 x_29 * x_7 - 21.5 x_29 * x_8 + 9.5 x_29 * x_11 + 10.5 x_29 * x_13 + 11.5 x_29 * x_23 + 8.0 x_29 * x_25 - 18.0 x_29 * x_26 - 6.5 x_29 * x_28 - 14.5 x_29 * x_32 + 18.5 x_29 * x_34 + 5.0 x_29 * x_35 + 3.0 x_29 * x_43 + 1.0 x_30 * x_4 + 10.0 x_30 * x_5 - 9.0 x_30 * x_8 - 11.5 x_30 * x_9 - 16.5 x_30 * x_10 + 17.5 x_30 * x_11 - 5.5 x_30 * x_13 + 8.5 x_30 * x_14 + 7.5 x_30 * x_18 + 22.0 x_30 * x_23 + 19.5 x_30 * x_26 + 22.0 x_30 * x_28 - 18.0 x_30 * x_43 - 1.0 x_30 * x_44 - 21.0 x_30 * x_46 - 6.5 x_30 * x_50 + 12.0 x_31 * x_2 + 6.0 x_31 * x_3 - 6.5 x_31 * x_4 + 10.5 x_31 * x_5 - 3.0 x_31 * x_6 - 9.5 x_31 * x_13 + 19.0 x_31 * x_18 + 23.0 x_31 * x_19 - 17.5 x_31 * x_21 + 21.0 x_31 * x_25 + 1.0 x_31 * x_26 + 17.5 x_31 * x_27 - 18.0 x_31 * x_31 - 9.0 x_31 * x_36 + 12.5 x_31 * x_38 - 17.0 x_31 * x_42 - 21.0 x_31 * x_46 - 10.0 x_31 * x_47 + 2.0 x_32 * x_4 - 9.0 x_32 * x_6 - 9.0 x_32 * x_7 - 10.5 x_32 * x_10 + 17.5 x_32 * x_16 - 20.5 x_32 * x_21 + 16.5 x_32 * x_22 - 14.5 x_32 * x_29 + 3.0 x_32 * x_34 - 23.5 x_32 * x_39 + 14.0 x_32 * x_40 + 23.5 x_32 * x_41 + 10.0 x_32 * x_44 - 1.5 x_32 * x_45 + 1.0 x_32 * x_46 + 23.0 x_32 * x_50 + 17.5 x_33 * x_5 + 9.5 x_33 * x_7 + 11.0 x_33 * x_21 - 9.0 x_33 * x_22 + 5.0 x_33 * x_24 - 13.0 x_33 * x_27 + 2.0 x_33 * x_28 - 23.0 x_33 * x_35 + 1.0 x_33 * x_36 + 22.5 x_33 * x_38 - 4.5 x_33 * x_41 - 3.5 x_33 * x_47 + 8.0 x_34 * x_4 - 3.5 x_34 * x_12 + 16.5 x_34 * x_14 + 3.0 x_34 * x_15 + 10.5 x_34 * x_17 + 17.5 x_34 * x_28 + 18.5 x_34 * x_29 + 3.0 x_34 * x_32 - 8.5 x_34 * x_37 - 6.5 x_34 * x_38 - 7.0 x_34 * x_44 + 22.0 x_34 * x_48 + 14.5 x_34 * x_50 - 15.0 x_35 * x_5 + 8.5 x_35 * x_11 - 4.5 x_35 * x_14 + 14.0 x_35 * x_16 - 1.5 x_35 * x_24 + 5.0 x_35 * x_29 - 23.0 x_35 * x_33 + 7.0 x_35 * x_41 + 12.0 x_35 * x_45 - 16.0 x_35 * x_47 - 0.5 x_35 * x_50 - 18.0 x_36 * x_3 + 3.5 x_36 * x_5 - 9.5 x_36 * x_10 - 7.0 x_36 * x_11 + 13.0 x_36 * x_16 + 15.5 x_36 * x_17 - 3.0 x_36 * x_21 + 13.0 x_36 * x_26 - 9.0 x_36 * x_31 + 1.0 x_36 * x_33 - 5.0 x_36 * x_37 - 3.0 x_36 * x_42 - 17.0 x_36 * x_43 - 4.0 x_36 * x_44 - 3.5 x_36 * x_50 - 21.0 x_37 * x_1 - 20.0 x_37 * x_2 + 14.5 x_37 * x_5 - 2.5 x_37 * x_7 + 13.0 x_37 * x_12 + 22.0 x_37 * x_13 - 20.0 x_37 * x_15 + 18.5 x_37 * x_20 + 2.5 x_37 * x_22 - 0.5 x_37 * x_24 - 24.5 x_37 * x_28 - 8.5 x_37 * x_34 - 5.0 x_37 * x_36 - 20.5 x_37 * x_37 - 14.0 x_37 * x_38 - 13.5 x_37 * x_45 - 20.5 x_37 * x_49 - 4.5 x_38 * x_1 - 8.0 x_38 * x_2 + 12.0 x_38 * x_5 + 22.5 x_38 * x_7 - 18.0 x_38 * x_9 - 24.0 x_38 * x_13 + 21.5 x_38 * x_16 - 24.0 x_38 * x_18 + 20.0 x_38 * x_19 - 10.0 x_38 * x_24 + 8.5 x_38 * x_27 + 12.5 x_38 * x_31 + 22.5 x_38 * x_33 - 6.5 x_38 * x_34 - 14.0 x_38 * x_37 + 19.5 x_38 * x_39 + 3.0 x_38 * x_40 + 11.5 x_38 * x_42 - 21.5 x_38 * x_46 - 19.0 x_38 * x_49 + 10.0 x_39 * x_1 + 17.0 x_39 * x_3 - 19.5 x_39 * x_4 - 24.5 x_39 * x_7 + 21.0 x_39 * x_12 - 4.5 x_39 * x_13 + 20.5 x_39 * x_22 - 19.5 x_39 * x_23 - 14.0 x_39 * x_24 - 4.0 x_39 * x_28 - 23.5 x_39 * x_32 + 19.5 x_39 * x_38 - 10.5 x_39 * x_43 + 15.0 x_39 * x_44 + 8.0 x_39 * x_46 - 5.0 x_39 * x_47 - 1.0 x_39 * x_50 - 11.0 x_40 * x_1 - 24.0 x_40 * x_3 + 1.5 x_40 * x_5 + 20.5 x_40 * x_7 - 13.5 x_40 * x_9 - 6.5 x_40 * x_13 - 9.5 x_40 * x_17 - 19.5 x_40 * x_26 + 14.0 x_40 * x_32 + 3.0 x_40 * x_38 - 24.0 x_40 * x_44 + 20.0 x_40 * x_47 + 11.5 x_40 * x_49 - 8.5 x_41 * x_7 + 14.0 x_41 * x_13 - 5.0 x_41 * x_14 + 13.0 x_41 * x_16 - 20.5 x_41 * x_17 - 22.0 x_41 * x_19 + 6.0 x_41 * x_22 - 11.0 x_41 * x_28 + 23.5 x_41 * x_32 - 4.5 x_41 * x_33 + 7.0 x_41 * x_35 + 8.5 x_41 * x_42 + 0.5 x_41 * x_48 - 8.5 x_41 * x_49 - 13.0 x_41 * x_50 + 21.5 x_42 * x_3 + 22.0 x_42 * x_5 - 13.0 x_42 * x_10 + 11.5 x_42 * x_15 + 9.0 x_42 * x_18 - 6.5 x_42 * x_24 + 4.0 x_42 * x_26 - 0.5 x_42 * x_27 - 17.0 x_42 * x_31 - 3.0 x_42 * x_36 + 11.5 x_42 * x_38 + 8.5 x_42 * x_41 + 4.5 x_42 * x_42 - 20.0 x_43 * x_2 - 5.5 x_43 * x_9 + 4.0 x_43 * x_13 - 15.5 x_43 * x_19 - 11.0 x_43 * x_20 + 10.5 x_43 * x_23 + 16.0 x_43 * x_24 + 6.0 x_43 * x_26 + 3.0 x_43 * x_29 - 18.0 x_43 * x_30 - 17.0 x_43 * x_36 - 10.5 x_43 * x_39 + 7.5 x_43 * x_50 - 5.5 x_44 * x_4 - 5.0 x_44 * x_14 - 22.0 x_44 * x_16 + 20.5 x_44 * x_21 + 9.0 x_44 * x_23 - 7.5 x_44 * x_27 - 1.0 x_44 * x_30 + 10.0 x_44 * x_32 - 7.0 x_44 * x_34 - 4.0 x_44 * x_36 + 15.0 x_44 * x_39 - 24.0 x_44 * x_40 - 3.5 x_44 * x_44 + 17.0 x_44 * x_48 + 19.5 x_44 * x_49 - 17.5 x_45 * x_3 - 16.5 x_45 * x_4 - 7.0 x_45 * x_11 - 11.5 x_45 * x_19 - 1.5 x_45 * x_20 - 8.5 x_45 * x_21 + 24.5 x_45 * x_24 + 10.0 x_45 * x_25 - 1.5 x_45 * x_32 + 12.0 x_45 * x_35 - 13.5 x_45 * x_37 - 9.5 x_45 * x_45 - 12.0 x_45 * x_48 - 20.5 x_46 * x_3 - 23.0 x_46 * x_6 + 12.0 x_46 * x_15 + 17.0 x_46 * x_21 - 16.0 x_46 * x_22 - 21.0 x_46 * x_30 - 21.0 x_46 * x_31 + 1.0 x_46 * x_32 - 21.5 x_46 * x_38 + 8.0 x_46 * x_39 - 15.5 x_46 * x_50 + 8.0 x_47 * x_2 + 1.5 x_47 * x_7 - 1.0 x_47 * x_8 - 14.0 x_47 * x_10 + 19.5 x_47 * x_13 + 14.5 x_47 * x_14 - 4.0 x_47 * x_28 - 10.0 x_47 * x_31 - 3.5 x_47 * x_33 - 16.0 x_47 * x_35 - 5.0 x_47 * x_39 + 20.0 x_47 * x_40 + 11.5 x_48 * x_8 - 10.5 x_48 * x_9 + 19.0 x_48 * x_13 + 23.5 x_48 * x_14 - 0.5 x_48 * x_23 + 22.0 x_48 * x_34 + 0.5 x_48 * x_41 + 17.0 x_48 * x_44 - 12.0 x_48 * x_45 + 19.0 x_48 * x_49 + 16.5 x_49 * x_2 + 14.5 x_49 * x_4 + 19.0 x_49 * x_5 - 1.5 x_49 * x_11 + 9.0 x_49 * x_14 - 0.5 x_49 * x_23 - 6.5 x_49 * x_25 - 13.5 x_49 * x_26 + 16.5 x_49 * x_27 - 20.5 x_49 * x_37 - 19.0 x_49 * x_38 + 11.5 x_49 * x_40 - 8.5 x_49 * x_41 + 19.5 x_49 * x_44 + 19.0 x_49 * x_48 - 24.0 x_49 * x_50 + 24.0 x_50 * x_4 + 17.5 x_50 * x_9 + 9.0 x_50 * x_10 - 0.5 x_50 * x_15 - 9.5 x_50 * x_19 + 20.5 x_50 * x_20 - 7.0 x_50 * x_23 - 18.5 x_50 * x_26 - 6.5 x_50 * x_30 + 23.0 x_50 * x_32 + 14.5 x_50 * x_34 - 0.5 x_50 * x_35 - 3.5 x_50 * x_36 - 1.0 x_50 * x_39 - 13.0 x_50 * x_41 + 7.5 x_50 * x_43 - 15.5 x_50 * x_46 - 24.0 x_50 * x_49 ] + 0.0 x_1 + 12.0 x_2 + 0.0 x_3 + 0.0 x_4 + 42.0 x_5 + 0.0 x_6 + 0.0 x_7 + 0.0 x_8 + 0.0 x_9 + 0.0 x_10 + 0.0 x_11 - 34.0 x_12 + 0.0 x_13 + 20.0 x_14 + 0.0 x_15 + 0.0 x_16 + 0.0 x_17 + 0.0 x_18 + 0.0 x_19 + 11.0 x_20 + 0.0 x_21 + 0.0 x_22 + 0.0 x_23 + 0.0 x_24 + 15.0 x_25 + 31.0 x_26 + 0.0 x_27 + 0.0 x_28 + 0.0 x_29 + 0.0 x_30 + 0.0 x_31 + 36.0 x_32 - 3.0 x_33 - 11.0 x_34 + 0.0 x_35 + 0.0 x_36 + 34.0 x_37 + 0.0 x_38 + 0.0 x_39 + 0.0 x_40 + 0.0 x_41 + 0.0 x_42 + 0.0 x_43 + 0.0 x_44 + 17.0 x_45 + 0.0 x_46 + 0.0 x_47 - 42.0 x_48 + 0.0 x_49 + 45.0 x_50

Subject To
 e2: [  x_1 * x_2 ] = 0.0
 e3: [  x_1 * x_6 ] = 0.0
 e4: [  x_1 * x_11 ] = 0.0
 e5: [  x_1 * x_39 ] = 0.0
 e6: [  x_1 * x_40 ] = 0.0
 e7: [  x_2 * x_1 ] = 0.0
 e8: [  x_2 * x_4 ] = 0.0
 e9: [  x_2 * x_5 ] = 0.0
 e10: [  x_2 * x_10 ] = 0.0
 e11: [  x_2 * x_13 ] = 0.0
 e12: [  x_2 * x_20 ] = 0.0
 e13: [  x_2 * x_37 ] = 0.0
 e14: [  x_2 * x_43 ] = 0.0
 e15: [  x_2 * x_47 ] = 0.0
 e16: [  x_3 * x_7 ] = 0.0
 e17: [  x_3 * x_12 ] = 0.0
 e18: [  x_3 * x_23 ] = 0.0
 e19: [  x_3 * x_31 ] = 0.0
 e20: [  x_3 * x_36 ] = 0.0
 e21: [  x_3 * x_39 ] = 0.0
 e22: [  x_3 * x_40 ] = 0.0
 e23: [  x_3 * x_42 ] = 0.0
 e24: [  x_3 * x_45 ] = 0.0
 e25: [  x_3 * x_46 ] = 0.0
 e26: [  x_4 * x_17 ] = 0.0
 e27: [  x_4 * x_24 ] = 0.0
 e28: [  x_4 * x_27 ] = 0.0
 e29: [  x_4 * x_28 ] = 0.0
 e30: [  x_4 * x_30 ] = 0.0
 e31: [  x_4 * x_32 ] = 0.0
 e32: [  x_4 * x_39 ] = 0.0
 e33: [  x_4 * x_44 ] = 0.0
 e34: [  x_5 * x_8 ] = 0.0
 e35: [  x_5 * x_12 ] = 0.0
 e36: [  x_5 * x_14 ] = 0.0
 e37: [  x_5 * x_17 ] = 0.0
 e38: [  x_5 * x_22 ] = 0.0
 e39: [  x_5 * x_25 ] = 0.0
 e40: [  x_5 * x_29 ] = 0.0
 e41: [  x_5 * x_30 ] = 0.0
 e42: [  x_5 * x_31 ] = 0.0
 e43: [  x_5 * x_37 ] = 0.0
 e44: [  x_5 * x_40 ] = 0.0
 e45: [  x_5 * x_42 ] = 0.0
 e46: [  x_5 * x_49 ] = 0.0
 e47: [  x_6 * x_19 ] = 0.0
 e48: [  x_6 * x_46 ] = 0.0
 e49: [  x_7 * x_3 ] = 0.0
 e50: [  x_7 * x_24 ] = 0.0
 e51: [  x_7 * x_29 ] = 0.0
 e52: [  x_7 * x_32 ] = 0.0
 e53: [  x_7 * x_37 ] = 0.0
 e54: [  x_7 * x_38 ] = 0.0
 e55: [  x_7 * x_39 ] = 0.0
 e56: [  x_7 * x_41 ] = 0.0
 e57: [  x_7 * x_47 ] = 0.0
 e58: [  x_8 * x_1 ] = 0.0
 e59: [  x_8 * x_9 ] = 0.0
 e60: [  x_8 * x_17 ] = 0.0
 e61: [  x_8 * x_24 ] = 0.0
 e62: [  x_8 * x_30 ] = 0.0
 e63: [  x_8 * x_47 ] = 0.0
 e64: [  x_8 * x_48 ] = 0.0
 e65: [  x_9 * x_17 ] = 0.0
 e66: [  x_9 * x_20 ] = 0.0
 e67: [  x_9 * x_26 ] = 0.0
 e68: [  x_9 * x_28 ] = 0.0
 e69: [  x_9 * x_30 ] = 0.0
 e70: [  x_9 * x_48 ] = 0.0
 e71: [  x_10 * x_2 ] = 0.0
 e72: [  x_10 * x_3 ] = 0.0
 e73: [  x_10 * x_11 ] = 0.0
 e74: [  x_10 * x_12 ] = 0.0
 e75: [  x_10 * x_24 ] = 0.0
 e76: [  x_10 * x_30 ] = 0.0
 e77: [  x_10 * x_47 ] = 0.0
 e78: [  x_11 * x_1 ] = 0.0
 e79: [  x_11 * x_4 ] = 0.0
 e80: [  x_11 * x_7 ] = 0.0
 e81: [  x_11 * x_10 ] = 0.0
 e82: [  x_11 * x_11 ] = 0.0
 e83: [  x_11 * x_14 ] = 0.0
 e84: [  x_11 * x_22 ] = 0.0
 e85: [  x_11 * x_24 ] = 0.0
 e86: [  x_11 * x_30 ] = 0.0
 e87: [  x_11 * x_35 ] = 0.0
 e88: [  x_11 * x_36 ] = 0.0
 e89: [  x_11 * x_45 ] = 0.0
 e90: [  x_11 * x_49 ] = 0.0
 e91: [  x_12 * x_7 ] = 0.0
 e92: [  x_12 * x_15 ] = 0.0
 e93: [  x_12 * x_16 ] = 0.0
 e94: [  x_12 * x_18 ] = 0.0
 e95: [  x_12 * x_22 ] = 0.0
 e96: [  x_12 * x_34 ] = 0.0
 e97: [  x_12 * x_37 ] = 0.0
 e98: [  x_13 * x_2 ] = 0.0
 e99: [  x_13 * x_3 ] = 0.0
 e100: [  x_13 * x_7 ] = 0.0
 e101: [  x_13 * x_14 ] = 0.0
 e102: [  x_13 * x_17 ] = 0.0
 e103: [  x_13 * x_19 ] = 0.0
 e104: [  x_13 * x_24 ] = 0.0
 e105: [  x_13 * x_27 ] = 0.0
 e106: [  x_13 * x_29 ] = 0.0
 e107: [  x_13 * x_31 ] = 0.0
 e108: [  x_13 * x_38 ] = 0.0
 e109: [  x_13 * x_40 ] = 0.0
 e110: [  x_13 * x_41 ] = 0.0
 e111: [  x_13 * x_43 ] = 0.0
 e112: [  x_14 * x_2 ] = 0.0
 e113: [  x_14 * x_3 ] = 0.0
 e114: [  x_14 * x_5 ] = 0.0
 e115: [  x_14 * x_8 ] = 0.0
 e116: [  x_14 * x_10 ] = 0.0
 e117: [  x_14 * x_13 ] = 0.0
 e118: [  x_14 * x_23 ] = 0.0
 e119: [  x_14 * x_30 ] = 0.0
 e120: [  x_14 * x_34 ] = 0.0
 e121: [  x_14 * x_35 ] = 0.0
 e122: [  x_14 * x_41 ] = 0.0
 e123: [  x_14 * x_47 ] = 0.0
 e124: [  x_14 * x_49 ] = 0.0
 e125: [  x_15 * x_7 ] = 0.0
 e126: [  x_15 * x_19 ] = 0.0
 e127: [  x_15 * x_20 ] = 0.0
 e128: [  x_15 * x_25 ] = 0.0
 e129: [  x_15 * x_34 ] = 0.0
 e130: [  x_15 * x_42 ] = 0.0
 e131: [  x_15 * x_50 ] = 0.0
 e132: [  x_16 * x_5 ] = 0.0
 e133: [  x_16 * x_32 ] = 0.0
 e134: [  x_16 * x_35 ] = 0.0
 e135: [  x_16 * x_38 ] = 0.0
 e136: [  x_16 * x_44 ] = 0.0
 e137: [  x_17 * x_4 ] = 0.0
 e138: [  x_17 * x_7 ] = 0.0
 e139: [  x_17 * x_8 ] = 0.0
 e140: [  x_17 * x_9 ] = 0.0
 e141: [  x_17 * x_13 ] = 0.0
 e142: [  x_17 * x_27 ] = 0.0
 e143: [  x_17 * x_34 ] = 0.0
 e144: [  x_17 * x_40 ] = 0.0
 e145: [  x_18 * x_4 ] = 0.0
 e146: [  x_18 * x_6 ] = 0.0
 e147: [  x_18 * x_10 ] = 0.0
 e148: [  x_18 * x_12 ] = 0.0
 e149: [  x_18 * x_15 ] = 0.0
 e150: [  x_18 * x_30 ] = 0.0
 e151: [  x_19 * x_1 ] = 0.0
 e152: [  x_19 * x_6 ] = 0.0
 e153: [  x_19 * x_10 ] = 0.0
 e154: [  x_19 * x_15 ] = 0.0
 e155: [  x_19 * x_27 ] = 0.0
 e156: [  x_19 * x_31 ] = 0.0
 e157: [  x_19 * x_38 ] = 0.0
 e158: [  x_19 * x_41 ] = 0.0
 e159: [  x_19 * x_43 ] = 0.0
 e160: [  x_19 * x_50 ] = 0.0
 e161: [  x_20 * x_2 ] = 0.0
 e162: [  x_20 * x_6 ] = 0.0
 e163: [  x_20 * x_9 ] = 0.0
 e164: [  x_20 * x_50 ] = 0.0
 e165: [  x_21 * x_5 ] = 0.0
 e166: [  x_21 * x_8 ] = 0.0
 e167: [  x_21 * x_24 ] = 0.0
 e168: [  x_21 * x_31 ] = 0.0
 e169: [  x_21 * x_46 ] = 0.0
 e170: [  x_22 * x_5 ] = 0.0
 e171: [  x_22 * x_8 ] = 0.0
 e172: [  x_22 * x_23 ] = 0.0
 e173: [  x_22 * x_25 ] = 0.0
 e174: [  x_22 * x_26 ] = 0.0
 e175: [  x_22 * x_33 ] = 0.0
 e176: [  x_22 * x_39 ] = 0.0
 e177: [  x_23 * x_3 ] = 0.0
 e178: [  x_23 * x_6 ] = 0.0
 e179: [  x_23 * x_13 ] = 0.0
 e180: [  x_23 * x_22 ] = 0.0
 e181: [  x_23 * x_28 ] = 0.0
 e182: [  x_23 * x_44 ] = 0.0
 e183: [  x_24 * x_5 ] = 0.0
 e184: [  x_24 * x_7 ] = 0.0
 e185: [  x_24 * x_9 ] = 0.0
 e186: [  x_24 * x_13 ] = 0.0
 e187: [  x_24 * x_20 ] = 0.0
 e188: [  x_24 * x_21 ] = 0.0
 e189: [  x_24 * x_38 ] = 0.0
 e190: [  x_24 * x_42 ] = 0.0
 e191: [  x_24 * x_45 ] = 0.0
 e192: [  x_25 * x_5 ] = 0.0
 e193: [  x_25 * x_15 ] = 0.0
 e194: [  x_25 * x_22 ] = 0.0
 e195: [  x_25 * x_29 ] = 0.0
 e196: [  x_26 * x_9 ] = 0.0
 e197: [  x_26 * x_15 ] = 0.0
 e198: [  x_26 * x_22 ] = 0.0
 e199: [  x_26 * x_31 ] = 0.0
 e200: [  x_26 * x_40 ] = 0.0
 e201: [  x_26 * x_42 ] = 0.0
 e202: [  x_26 * x_43 ] = 0.0
 e203: [  x_26 * x_50 ] = 0.0
 e204: [  x_27 * x_4 ] = 0.0
 e205: [  x_27 * x_6 ] = 0.0
 e206: [  x_27 * x_13 ] = 0.0
 e207: [  x_27 * x_17 ] = 0.0
 e208: [  x_27 * x_19 ] = 0.0
 e209: [  x_27 * x_23 ] = 0.0
 e210: [  x_27 * x_31 ] = 0.0
 e211: [  x_27 * x_42 ] = 0.0
 e212: [  x_27 * x_49 ] = 0.0
 e213: [  x_28 * x_4 ] = 0.0
 e214: [  x_28 * x_9 ] = 0.0
 e215: [  x_28 * x_21 ] = 0.0
 e216: [  x_28 * x_24 ] = 0.0
 e217: [  x_28 * x_29 ] = 0.0
 e218: [  x_28 * x_34 ] = 0.0
 e219: [  x_28 * x_41 ] = 0.0
 e220: [  x_29 * x_1 ] = 0.0
 e221: [  x_29 * x_7 ] = 0.0
 e222: [  x_29 * x_8 ] = 0.0
 e223: [  x_29 * x_11 ] = 0.0
 e224: [  x_29 * x_23 ] = 0.0
 e225: [  x_29 * x_26 ] = 0.0
 e226: [  x_29 * x_32 ] = 0.0
 e227: [  x_29 * x_34 ] = 0.0
 e228: [  x_29 * x_35 ] = 0.0
 e229: [  x_30 * x_4 ] = 0.0
 e230: [  x_30 * x_10 ] = 0.0
 e231: [  x_30 * x_11 ] = 0.0
 e232: [  x_30 * x_14 ] = 0.0
 e233: [  x_30 * x_18 ] = 0.0
 e234: [  x_30 * x_23 ] = 0.0
 e235: [  x_30 * x_28 ] = 0.0
 e236: [  x_30 * x_50 ] = 0.0
 e237: [  x_31 * x_2 ] = 0.0
 e238: [  x_31 * x_3 ] = 0.0
 e239: [  x_31 * x_4 ] = 0.0
 e240: [  x_31 * x_5 ] = 0.0
 e241: [  x_31 * x_18 ] = 0.0
 e242: [  x_31 * x_19 ] = 0.0
 e243: [  x_31 * x_25 ] = 0.0
 e244: [  x_31 * x_27 ] = 0.0
 e245: [  x_31 * x_42 ] = 0.0
 e246: [  x_31 * x_47 ] = 0.0
 e247: [  x_32 * x_7 ] = 0.0
 e248: [  x_32 * x_10 ] = 0.0
 e249: [  x_32 * x_21 ] = 0.0
 e250: [  x_32 * x_22 ] = 0.0
 e251: [  x_32 * x_29 ] = 0.0
 e252: [  x_32 * x_39 ] = 0.0
 e253: [  x_32 * x_41 ] = 0.0
 e254: [  x_32 * x_44 ] = 0.0
 e255: [  x_32 * x_45 ] = 0.0
 e256: [  x_32 * x_50 ] = 0.0
 e257: [  x_33 * x_22 ] = 0.0
 e258: [  x_33 * x_24 ] = 0.0
 e259: [  x_33 * x_35 ] = 0.0
 e260: [  x_33 * x_38 ] = 0.0
 e261: [  x_34 * x_12 ] = 0.0
 e262: [  x_34 * x_15 ] = 0.0
 e263: [  x_34 * x_17 ] = 0.0
 e264: [  x_34 * x_28 ] = 0.0
 e265: [  x_34 * x_32 ] = 0.0
 e266: [  x_34 * x_44 ] = 0.0
 e267: [  x_34 * x_50 ] = 0.0
 e268: [  x_35 * x_24 ] = 0.0
 e269: [  x_35 * x_41 ] = 0.0
 e270: [  x_35 * x_50 ] = 0.0
 e271: [  x_36 * x_3 ] = 0.0
 e272: [  x_36 * x_10 ] = 0.0
 e273: [  x_36 * x_11 ] = 0.0
 e274: [  x_36 * x_21 ] = 0.0
 e275: [  x_36 * x_26 ] = 0.0
 e276: [  x_36 * x_33 ] = 0.0
 e277: [  x_36 * x_37 ] = 0.0
 e278: [  x_36 * x_43 ] = 0.0
 e279: [  x_36 * x_50 ] = 0.0
 e280: [  x_37 * x_5 ] = 0.0
 e281: [  x_37 * x_7 ] = 0.0
 e282: [  x_37 * x_12 ] = 0.0
 e283: [  x_37 * x_20 ] = 0.0
 e284: [  x_37 * x_22 ] = 0.0
 e285: [  x_37 * x_34 ] = 0.0
 e286: [  x_37 * x_36 ] = 0.0
 e287: [  x_37 * x_37 ] = 0.0
 e288: [  x_37 * x_38 ] = 0.0
 e289: [  x_37 * x_49 ] = 0.0
 e290: [  x_38 * x_1 ] = 0.0
 e291: [  x_38 * x_5 ] = 0.0
 e292: [  x_38 * x_7 ] = 0.0
 e293: [  x_38 * x_13 ] = 0.0
 e294: [  x_38 * x_18 ] = 0.0
 e295: [  x_38 * x_31 ] = 0.0
 e296: [  x_38 * x_33 ] = 0.0
 e297: [  x_38 * x_39 ] = 0.0
 e298: [  x_38 * x_42 ] = 0.0
 e299: [  x_39 * x_1 ] = 0.0
 e300: [  x_39 * x_4 ] = 0.0
 e301: [  x_39 * x_22 ] = 0.0
 e302: [  x_39 * x_23 ] = 0.0
 e303: [  x_39 * x_24 ] = 0.0
 e304: [  x_39 * x_32 ] = 0.0
 e305: [  x_39 * x_38 ] = 0.0
 e306: [  x_39 * x_44 ] = 0.0
 e307: [  x_39 * x_46 ] = 0.0
 e308: [  x_39 * x_50 ] = 0.0
 e309: [  x_40 * x_1 ] = 0.0
 e310: [  x_40 * x_3 ] = 0.0
 e311: [  x_40 * x_5 ] = 0.0
 e312: [  x_40 * x_7 ] = 0.0
 e313: [  x_40 * x_13 ] = 0.0
 e314: [  x_40 * x_26 ] = 0.0
 e315: [  x_40 * x_38 ] = 0.0
 e316: [  x_41 * x_13 ] = 0.0
 e317: [  x_41 * x_14 ] = 0.0
 e318: [  x_41 * x_16 ] = 0.0
 e319: [  x_41 * x_17 ] = 0.0
 e320: [  x_41 * x_28 ] = 0.0
 e321: [  x_41 * x_33 ] = 0.0
 e322: [  x_41 * x_48 ] = 0.0
 e323: [  x_42 * x_3 ] = 0.0
 e324: [  x_42 * x_15 ] = 0.0
 e325: [  x_42 * x_18 ] = 0.0
 e326: [  x_42 * x_24 ] = 0.0
 e327: [  x_42 * x_26 ] = 0.0
 e328: [  x_42 * x_36 ] = 0.0
 e329: [  x_43 * x_2 ] = 0.0
 e330: [  x_43 * x_13 ] = 0.0
 e331: [  x_43 * x_20 ] = 0.0
 e332: [  x_43 * x_23 ] = 0.0
 e333: [  x_43 * x_24 ] = 0.0
 e334: [  x_43 * x_26 ] = 0.0
 e335: [  x_43 * x_30 ] = 0.0
 e336: [  x_43 * x_36 ] = 0.0
 e337: [  x_43 * x_50 ] = 0.0
 e338: [  x_44 * x_16 ] = 0.0
 e339: [  x_44 * x_34 ] = 0.0
 e340: [  x_44 * x_36 ] = 0.0
 e341: [  x_44 * x_39 ] = 0.0
 e342: [  x_44 * x_44 ] = 0.0
 e343: [  x_44 * x_48 ] = 0.0
 e344: [  x_45 * x_4 ] = 0.0
 e345: [  x_45 * x_19 ] = 0.0
 e346: [  x_45 * x_24 ] = 0.0
 e347: [  x_45 * x_35 ] = 0.0
 e348: [  x_45 * x_45 ] = 0.0
 e349: [  x_46 * x_6 ] = 0.0
 e350: [  x_46 * x_15 ] = 0.0
 e351: [  x_46 * x_21 ] = 0.0
 e352: [  x_46 * x_22 ] = 0.0
 e353: [  x_46 * x_30 ] = 0.0
 e354: [  x_46 * x_31 ] = 0.0
 e355: [  x_46 * x_32 ] = 0.0
 e356: [  x_46 * x_38 ] = 0.0
 e357: [  x_46 * x_39 ] = 0.0
 e358: [  x_47 * x_2 ] = 0.0
 e359: [  x_47 * x_7 ] = 0.0
 e360: [  x_47 * x_8 ] = 0.0
 e361: [  x_47 * x_10 ] = 0.0
 e362: [  x_47 * x_13 ] = 0.0
 e363: [  x_47 * x_14 ] = 0.0
 e364: [  x_47 * x_31 ] = 0.0
 e365: [  x_47 * x_35 ] = 0.0
 e366: [  x_47 * x_40 ] = 0.0
 e367: [  x_48 * x_14 ] = 0.0
 e368: [  x_48 * x_34 ] = 0.0
 e369: [  x_48 * x_41 ] = 0.0
 e370: [  x_48 * x_45 ] = 0.0
 e371: [  x_48 * x_49 ] = 0.0
 e372: [  x_49 * x_2 ] = 0.0
 e373: [  x_49 * x_4 ] = 0.0
 e374: [  x_49 * x_5 ] = 0.0
 e375: [  x_49 * x_11 ] = 0.0
 e376: [  x_49 * x_23 ] = 0.0
 e377: [  x_49 * x_25 ] = 0.0
 e378: [  x_49 * x_26 ] = 0.0
 e379: [  x_49 * x_41 ] = 0.0
 e380: [  x_49 * x_50 ] = 0.0
 e381: [  x_50 * x_4 ] = 0.0
 e382: [  x_50 * x_9 ] = 0.0
 e383: [  x_50 * x_15 ] = 0.0
 e384: [  x_50 * x_23 ] = 0.0
 e385: [  x_50 * x_26 ] = 0.0
 e386: [  x_50 * x_30 ] = 0.0
 e387: [  x_50 * x_35 ] = 0.0
 e388: [  x_50 * x_36 ] = 0.0
 e389: [  x_50 * x_39 ] = 0.0
 e390: [  x_50 * x_41 ] = 0.0

Bounds
 x_1 <= 1.0
 x_2 <= 1.0
 x_3 <= 1.0
 x_4 <= 1.0
 x_5 <= 1.0
 x_6 <= 1.0
 x_7 <= 1.0
 x_8 <= 1.0
 x_9 <= 1.0
 x_10 <= 1.0
 x_11 <= 1.0
 x_12 <= 1.0
 x_13 <= 1.0
 x_14 <= 1.0
 x_15 <= 1.0
 x_16 <= 1.0
 x_17 <= 1.0
 x_18 <= 1.0
 x_19 <= 1.0
 x_20 <= 1.0
 x_21 <= 1.0
 x_22 <= 1.0
 x_23 <= 1.0
 x_24 <= 1.0
 x_25 <= 1.0
 x_26 <= 1.0
 x_27 <= 1.0
 x_28 <= 1.0
 x_29 <= 1.0
 x_30 <= 1.0
 x_31 <= 1.0
 x_32 <= 1.0
 x_33 <= 1.0
 x_34 <= 1.0
 x_35 <= 1.0
 x_36 <= 1.0
 x_37 <= 1.0
 x_38 <= 1.0
 x_39 <= 1.0
 x_40 <= 1.0
 x_41 <= 1.0
 x_42 <= 1.0
 x_43 <= 1.0
 x_44 <= 1.0
 x_45 <= 1.0
 x_46 <= 1.0
 x_47 <= 1.0
 x_48 <= 1.0
 x_49 <= 1.0
 x_50 <= 1.0

End